computational_data/real_data/logs/wine_trial_012_lex.log
Welcome to the CBC MILP Solver 
Version: 2.10.12 
Build Date: Aug 20 2024 

command line - /opt/homebrew/bin/cbc computational_data/real_data/lp/wine_trial_012_lex.lp seconds 10.0 solve solu computational_data/real_data/solutions/wine_trial_012_lex.sol (default strategy 1)
 CoinLpIO::readLp(): Maximization problem reformulated as minimization
Coin0009I Switching back to maximization to get correct duals etc
seconds was changed from 1e+100 to 10
Continuous objective value is 6.72222 - 0.00 seconds
Cgl0003I 0 fixed, 0 tightened bounds, 94 strengthened rows, 0 substitutions
Cgl0003I 0 fixed, 0 tightened bounds, 94 strengthened rows, 0 substitutions
Cgl0003I 0 fixed, 0 tightened bounds, 91 strengthened rows, 0 substitutions
Cgl0003I 0 fixed, 0 tightened bounds, 84 strengthened rows, 0 substitutions
Cgl0003I 0 fixed, 0 tightened bounds, 71 strengthened rows, 0 substitutions
Cgl0003I 0 fixed, 0 tightened bounds, 43 strengthened rows, 0 substitutions
Cgl0003I 0 fixed, 0 tightened bounds, 23 strengthened rows, 0 substitutions
Cgl0003I 0 fixed, 0 tightened bounds, 17 strengthened rows, 0 substitutions
Cgl0003I 0 fixed, 0 tightened bounds, 11 strengthened rows, 0 substitutions
Cgl0004I processed model has 89 rows, 29 columns (29 integer (29 of which binary)) and 683 elements
Cbc0038I Initial state - 9 integers unsatisfied sum - 4.5
Cbc0038I Pass   1: suminf.    0.00000 (0) obj. 6.66667 iterations 19
Cbc0038I Solution found of 6.66667
Cbc0038I Before mini branch and bound, 17 integers at bound fixed and 0 continuous
Cbc0038I Full problem 89 rows 29 columns, reduced to 32 rows 12 columns
Cbc0038I Mini branch and bound improved solution from 6.66667 to 6.66667 (0.01 seconds)
Cbc0038I Round again with cutoff of 6.66806
Cbc0038I Reduced cost fixing fixed 2 variables on major pass 2
Cbc0038I Pass   2: suminf.    0.45292 (9) obj. 6.66806 iterations 21
Cbc0038I Pass   3: suminf.    0.45292 (9) obj. 6.66806 iterations 0
Cbc0038I Pass   4: suminf.    2.78774 (9) obj. 6.66806 iterations 15
Cbc0038I Pass   5: suminf.    2.73742 (9) obj. 6.66806 iterations 7
Cbc0038I Pass   6: suminf.    0.60389 (9) obj. 6.66806 iterations 15
Cbc0038I Pass   7: suminf.    0.45292 (9) obj. 6.66806 iterations 11
Cbc0038I Pass   8: suminf.    0.55356 (9) obj. 6.66806 iterations 18
Cbc0038I Pass   9: suminf.    0.45292 (9) obj. 6.66806 iterations 10
Cbc0038I Pass  10: suminf.    0.45292 (9) obj. 6.66806 iterations 12
Cbc0038I Pass  11: suminf.    3.33333 (10) obj. 6.67593 iterations 10
Cbc0038I Pass  12: suminf.    0.65421 (10) obj. 6.66806 iterations 6
Cbc0038I Pass  13: suminf.    0.45292 (9) obj. 6.66806 iterations 9
Cbc0038I Pass  14: suminf.    0.45292 (9) obj. 6.66806 iterations 15
Cbc0038I Pass  15: suminf.    0.45292 (9) obj. 6.66806 iterations 8
Cbc0038I Pass  16: suminf.    0.55356 (9) obj. 6.66806 iterations 19
Cbc0038I Pass  17: suminf.    0.45292 (9) obj. 6.66806 iterations 13
Cbc0038I Pass  18: suminf.    0.45292 (9) obj. 6.66806 iterations 18
Cbc0038I Pass  19: suminf.    0.45292 (9) obj. 6.66806 iterations 3
Cbc0038I Pass  20: suminf.    0.45292 (9) obj. 6.66806 iterations 2
Cbc0038I Pass  21: suminf.    0.60389 (10) obj. 6.66806 iterations 6
Cbc0038I Pass  22: suminf.    0.45292 (9) obj. 6.66806 iterations 5
Cbc0038I Pass  23: suminf.    0.55356 (9) obj. 6.66806 iterations 28
Cbc0038I Pass  24: suminf.    0.45292 (9) obj. 6.66806 iterations 12
Cbc0038I Pass  25: suminf.    0.45292 (9) obj. 6.66806 iterations 17
Cbc0038I Pass  26: suminf.    0.45292 (9) obj. 6.66806 iterations 1
Cbc0038I Pass  27: suminf.    0.55356 (9) obj. 6.66806 iterations 9
Cbc0038I Pass  28: suminf.    0.45292 (9) obj. 6.66806 iterations 11
Cbc0038I Pass  29: suminf.    0.55356 (9) obj. 6.66806 iterations 21
Cbc0038I Pass  30: suminf.    0.45292 (9) obj. 6.66806 iterations 12
Cbc0038I Pass  31: suminf.    0.45292 (9) obj. 6.66806 iterations 12
Cbc0038I No solution found this major pass
Cbc0038I Before mini branch and bound, 12 integers at bound fixed and 0 continuous
Cbc0038I Full problem 89 rows 29 columns, reduced to 47 rows 17 columns
Cbc0038I Mini branch and bound did not improve solution (0.02 seconds)
Cbc0038I After 0.02 seconds - Feasibility pump exiting with objective of 6.66667 - took 0.01 seconds
Cbc0012I Integer solution of 6.666666 found by feasibility pump after 0 iterations and 0 nodes (0.02 seconds)
Cbc0038I Full problem 89 rows 29 columns, reduced to 6 rows 5 columns
Cbc0031I 1 added rows had average density of 6
Cbc0013I At root node, 4 cuts changed objective from 6.680555 to 6.666666 in 1 passes
Cbc0014I Cut generator 0 (Probing) - 0 row cuts average 0.0 elements, 0 column cuts (0 active)  in 0.000 seconds - new frequency is -100
Cbc0014I Cut generator 1 (Gomory) - 2 row cuts average 8.5 elements, 0 column cuts (0 active)  in 0.000 seconds - new frequency is 1
Cbc0014I Cut generator 2 (Knapsack) - 0 row cuts average 0.0 elements, 0 column cuts (0 active)  in 0.000 seconds - new frequency is -100
Cbc0014I Cut generator 3 (Clique) - 0 row cuts average 0.0 elements, 0 column cuts (0 active)  in 0.000 seconds - new frequency is -100
Cbc0014I Cut generator 4 (MixedIntegerRounding2) - 0 row cuts average 0.0 elements, 0 column cuts (0 active)  in 0.000 seconds - new frequency is -100
Cbc0014I Cut generator 5 (FlowCover) - 0 row cuts average 0.0 elements, 0 column cuts (0 active)  in 0.000 seconds - new frequency is -100
Cbc0014I Cut generator 6 (TwoMirCuts) - 2 row cuts average 12.5 elements, 0 column cuts (0 active)  in 0.000 seconds - new frequency is -100
Cbc0001I Search completed - best objective 6.666666000000001, took 0 iterations and 0 nodes (0.02 seconds)
Cbc0035I Maximum depth 0, 2 variables fixed on reduced cost
Cuts at root node changed objective from 6.68056 to 6.66667
Probing was tried 1 times and created 0 cuts of which 0 were active after adding rounds of cuts (0.000 seconds)
Gomory was tried 1 times and created 2 cuts of which 0 were active after adding rounds of cuts (0.000 seconds)
Knapsack was tried 1 times and created 0 cuts of which 0 were active after adding rounds of cuts (0.000 seconds)
Clique was tried 1 times and created 0 cuts of which 0 were active after adding rounds of cuts (0.000 seconds)
MixedIntegerRounding2 was tried 1 times and created 0 cuts of which 0 were active after adding rounds of cuts (0.000 seconds)
FlowCover was tried 1 times and created 0 cuts of which 0 were active after adding rounds of cuts (0.000 seconds)
TwoMirCuts was tried 1 times and created 2 cuts of which 0 were active after adding rounds of cuts (0.000 seconds)
ZeroHalf was tried 1 times and created 0 cuts of which 0 were active after adding rounds of cuts (0.000 seconds)

Result - Optimal solution found

Objective value:                6.66666600
Enumerated nodes:               0
Total iterations:               0
Time (CPU seconds):             0.02
Time (Wallclock seconds):       0.02

Total time (CPU seconds):       0.02   (Wallclock seconds):       0.02

